single_objective/SL-DABL/OP/problems/op/OPLib-master/solutions/ea4op/gen1/gr137-gen1-50.sol
NAME : gr137
TYPE : OP
DIMENSION : 137
COST_LIMIT : 34927
ROUTE_NODES : 78
ROUTE_SCORE : 78
ROUTE_COST : 34915
NODE_SEQUENCE_SECTION
1
6
7
9
8
10
29
30
31
32
33
34
35
40
39
38
37
36
41
12
13
14
15
45
46
47
48
42
43
44
49
50
72
73
74
75
76
77
78
79
80
81
85
96
94
95
93
91
90
89
71
70
69
68
67
66
63
62
60
59
58
55
56
54
53
52
28
27
25
23
22
21
20
18
5
4
3
2
-1
DEPOT_SECTION
1
-1
EOF
